NAME: berlin52
TYPE: TOUR
DIMENSION: 52
TOUR_SECTION
1
22
31
18
3
17
21
42
7
2
49
32
45
19
41
8
10
9
36
35
34
44
16
50
20
23
30
29
39
40
37
38
24
5
6
4
25
12
28
27
13
14
52
26
47
51
11
15
43
33
48
46
EOF
